0 99 
1 99 
2 99 
3 99 
4 99 
5 99 
6 99 
7 99 
8 99 
9 99 
10 99 
11 99 
12 99 
13 99 
14 99 
15 99 
16 99 
17 99 
18 99 
19 99 
20 99 
21 99 
22 99 
23 99 
24 99 
25 99 
26 99 
27 99 
28 99 
29 196 
30 196 
31 99 
32 1 
33 1 
34 1 
35 1 
36 1 
37 1 
38 1 
39 1 
40 1 
41 1 
42 1 
43 1 
44 1 
45 1 
46 1 
47 1 
48 1 
49 1 
50 1 
